27      4       
10      10      10      10      
0       0       0       0       0       3       2       3       7       
10      0       0       0       0       5       4       5       6       10      13      
7       0       0       1       0       5       8       9       12      16      17      
1       0       1       0       0       4       9       11      16      17      
4       0       4       3       0       3       8       16      26      
2       0       0       2       0       5       11      12      16      18      26      
8       2       2       0       4       8       14      15      17      18      20      24      25      26      
3       4       2       0       0       4       11      15      18      20      
4       0       3       2       0       7       14      18      20      23      24      25      26      
5       0       2       0       2       4       14      15      17      18      
9       3       0       0       2       5       14      19      23      24      25      
1       0       3       0       3       4       20      22      23      24      
9       1       3       6       0       4       19      21      23      24      
1       0       3       3       0       2       21      22      
6       2       0       0       4       2       21      23      
7       2       1       0       0       2       21      24      
9       2       3       0       0       2       21      22      
2       0       0       2       5       1       19      
2       0       0       0       0       1       22      
1       0       2       0       2       1       21      
2       5       0       7       0       1       27      
1       5       0       0       0       1       27      
4       0       3       0       0       1       27      
1       3       0       1       2       1       27      
1       0       0       1       1       1       27      
5       2       3       0       0       1       27      
0       0       0       0       0       0       
